12      4       
9       8       9       9       
0       0       0       0       0       2       2       3       
10      3       0       0       0       2       7       8       
9       8       0       4       6       1       4       
6       1       2       4       0       1       5       
4       0       7       9       3       2       6       7       
4       6       0       6       2       2       8       11      
9       0       5       0       7       2       10      11      
2       0       0       0       3       1       9       
3       7       0       1       0       1       10      
10      3       0       0       0       1       12      
8       4       0       0       0       1       12      
0       0       0       0       0       0       
